p tw 27 37
1 2
1 4
4 5
4 7
7 8
7 10
10 11
10 13
13 14
13 16
16 17
16 19
19 20
19 22
22 23
22 25
25 26
2 3
5 6
5 8
8 9
8 11
11 12
11 14
14 17
17 18
17 20
20 21
20 23
23 24
23 26
26 27
6 9
12 15
15 18
18 21
21 24
